15
0 15 121 52 33 804 48 21 177 101 157 323 9 143 201
15 0 228 641 279 276 497 24 227 6 300 107 364 829 119
121 228 0 319 240 111 52 415 258 959 89 39 241 229 79
52 641 319 0 310 346 117 274 816 26 785 150 45 20 534
33 279 240 310 0 18 773 33 114 472 236 23 153 39 117
804 276 111 346 18 0 82 131 342 175 51 240 18 268 2
48 497 52 117 773 82 0 5 328 154 1 102 0 307 655
21 24 415 274 33 131 5 0 49 251 117 134 61 164 13
177 227 258 816 114 342 328 49 0 598 22 252 248 244 381
101 6 959 26 472 175 154 251 598 0 90 490 111 401 204
157 300 89 785 236 51 1 117 22 90 0 8 114 187 131
323 107 39 150 23 240 102 134 252 490 8 0 193 59 460
9 364 241 45 153 18 0 61 248 111 114 193 0 500 304
143 829 229 20 39 268 307 164 244 401 187 59 500 0 0
201 119 79 534 117 2 655 13 381 204 131 460 304 0 0